38647 38966 
38133 39108 
38106 39175 
37814 39287 
37061 39414 
38698 38922 
38210 39053 
37594 39363 
37129 39368 
37886 39251 
39614 38299 
38619 39002 
38990 38810 
40148 37947 
38185 39095 
39834 38223 
39504 38470 
39354 38541 
40007 37962 
39062 38653 
39856 38059 
39542 38335 
39923 37984 
40502 37465 
40384 37571 
40636 37111 
40681 37067 
40518 37217 
40282 37593 
41074 36139 
40959 36703 
41167 35455 
40577 37128 
